* Signature: 0x5b6ef6aeab80ea12
NAME sp_9_1
ROWS
 N  OBJ
 E  flow_cons_inner_nodes[1]
 E  flow_cons_inner_nodes[2]
 E  flow_cons_inner_nodes[3]
 E  flow_cons_inner_nodes[5]
 E  flow_cons_inner_nodes[6]
 E  flow_cons_inner_nodes[7]
 E  flow_cons_inner_nodes[8]
 E  flow_cons_source
 E  flow_cons_target
 L  primal_lower
 L  mccormick1[0,2]
 L  mccormick1[0,3]
 L  mccormick1[0,5]
 L  mccormick1[0,6]
 L  mccormick1[0,7]
 L  mccormick1[0,8]
 L  mccormick1[1,2]
 L  mccormick1[1,3]
 L  mccormick1[1,4]
 L  mccormick1[1,6]
 L  mccormick1[1,8]
 L  mccormick1[2,0]
 L  mccormick1[2,1]
 L  mccormick1[2,3]
 L  mccormick1[2,4]
 L  mccormick1[2,5]
 L  mccormick1[2,6]
 L  mccormick1[2,7]
 L  mccormick1[2,8]
 L  mccormick1[3,0]
 L  mccormick1[3,1]
 L  mccormick1[3,2]
 L  mccormick1[3,4]
 L  mccormick1[3,5]
 L  mccormick1[3,6]
 L  mccormick1[3,8]
 L  mccormick1[4,1]
 L  mccormick1[4,2]
 L  mccormick1[4,3]
 L  mccormick1[4,6]
 L  mccormick1[4,8]
 L  mccormick1[5,0]
 L  mccormick1[5,2]
 L  mccormick1[5,3]
 L  mccormick1[5,6]
 L  mccormick1[5,7]
 L  mccormick1[5,8]
 L  mccormick1[6,0]
 L  mccormick1[6,1]
 L  mccormick1[6,2]
 L  mccormick1[6,3]
 L  mccormick1[6,4]
 L  mccormick1[6,5]
 L  mccormick1[6,7]
 L  mccormick1[6,8]
 L  mccormick1[7,0]
 L  mccormick1[7,2]
 L  mccormick1[7,5]
 L  mccormick1[7,6]
 L  mccormick1[7,8]
 L  mccormick1[8,0]
 L  mccormick1[8,1]
 L  mccormick1[8,2]
 L  mccormick1[8,3]
 L  mccormick1[8,4]
 L  mccormick1[8,5]
 L  mccormick1[8,6]
 L  mccormick1[8,7]
 L  mccormick2[0,2]
 L  mccormick2[0,3]
 L  mccormick2[0,5]
 L  mccormick2[0,6]
 L  mccormick2[0,7]
 L  mccormick2[0,8]
 L  mccormick2[1,2]
 L  mccormick2[1,3]
 L  mccormick2[1,4]
 L  mccormick2[1,6]
 L  mccormick2[1,8]
 L  mccormick2[2,0]
 L  mccormick2[2,1]
 L  mccormick2[2,3]
 L  mccormick2[2,4]
 L  mccormick2[2,5]
 L  mccormick2[2,6]
 L  mccormick2[2,7]
 L  mccormick2[2,8]
 L  mccormick2[3,0]
 L  mccormick2[3,1]
 L  mccormick2[3,2]
 L  mccormick2[3,4]
 L  mccormick2[3,5]
 L  mccormick2[3,6]
 L  mccormick2[3,8]
 L  mccormick2[4,1]
 L  mccormick2[4,2]
 L  mccormick2[4,3]
 L  mccormick2[4,6]
 L  mccormick2[4,8]
 L  mccormick2[5,0]
 L  mccormick2[5,2]
 L  mccormick2[5,3]
 L  mccormick2[5,6]
 L  mccormick2[5,7]
 L  mccormick2[5,8]
 L  mccormick2[6,0]
 L  mccormick2[6,1]
 L  mccormick2[6,2]
 L  mccormick2[6,3]
 L  mccormick2[6,4]
 L  mccormick2[6,5]
 L  mccormick2[6,7]
 L  mccormick2[6,8]
 L  mccormick2[7,0]
 L  mccormick2[7,2]
 L  mccormick2[7,5]
 L  mccormick2[7,6]
 L  mccormick2[7,8]
 L  mccormick2[8,0]
 L  mccormick2[8,1]
 L  mccormick2[8,2]
 L  mccormick2[8,3]
 L  mccormick2[8,4]
 L  mccormick2[8,5]
 L  mccormick2[8,6]
 L  mccormick2[8,7]
 G  mccormick3[0,2]
 G  mccormick3[0,3]
 G  mccormick3[0,5]
 G  mccormick3[0,6]
 G  mccormick3[0,7]
 G  mccormick3[0,8]
 G  mccormick3[1,2]
 G  mccormick3[1,3]
 G  mccormick3[1,4]
 G  mccormick3[1,6]
 G  mccormick3[1,8]
 G  mccormick3[2,0]
 G  mccormick3[2,1]
 G  mccormick3[2,3]
 G  mccormick3[2,4]
 G  mccormick3[2,5]
 G  mccormick3[2,6]
 G  mccormick3[2,7]
 G  mccormick3[2,8]
 G  mccormick3[3,0]
 G  mccormick3[3,1]
 G  mccormick3[3,2]
 G  mccormick3[3,4]
 G  mccormick3[3,5]
 G  mccormick3[3,6]
 G  mccormick3[3,8]
 G  mccormick3[4,1]
 G  mccormick3[4,2]
 G  mccormick3[4,3]
 G  mccormick3[4,6]
 G  mccormick3[4,8]
 G  mccormick3[5,0]
 G  mccormick3[5,2]
 G  mccormick3[5,3]
 G  mccormick3[5,6]
 G  mccormick3[5,7]
 G  mccormick3[5,8]
 G  mccormick3[6,0]
 G  mccormick3[6,1]
 G  mccormick3[6,2]
 G  mccormick3[6,3]
 G  mccormick3[6,4]
 G  mccormick3[6,5]
 G  mccormick3[6,7]
 G  mccormick3[6,8]
 G  mccormick3[7,0]
 G  mccormick3[7,2]
 G  mccormick3[7,5]
 G  mccormick3[7,6]
 G  mccormick3[7,8]
 G  mccormick3[8,0]
 G  mccormick3[8,1]
 G  mccormick3[8,2]
 G  mccormick3[8,3]
 G  mccormick3[8,4]
 G  mccormick3[8,5]
 G  mccormick3[8,6]
 G  mccormick3[8,7]
COLUMNS
    MARKER    'MARKER'                 'INTORG'
    y[0,2]    OBJ       26.93
    y[0,2]    flow_cons_inner_nodes[2]  1
    y[0,2]    flow_cons_source  1
    y[0,2]    primal_lower  -0.57
    y[0,2]    mccormick2[0,2]  -1
    y[0,2]    mccormick3[0,2]  -1
    y[0,3]    OBJ       65.19
    y[0,3]    flow_cons_inner_nodes[3]  1
    y[0,3]    flow_cons_source  1
    y[0,3]    primal_lower  -3.03
    y[0,3]    mccormick2[0,3]  -1
    y[0,3]    mccormick3[0,3]  -1
    y[0,5]    OBJ       23.41
    y[0,5]    flow_cons_inner_nodes[5]  1
    y[0,5]    flow_cons_source  1
    y[0,5]    primal_lower  -0.66
    y[0,5]    mccormick2[0,5]  -1
    y[0,5]    mccormick3[0,5]  -1
    y[0,6]    OBJ       76.9
    y[0,6]    flow_cons_inner_nodes[6]  1
    y[0,6]    flow_cons_source  1
    y[0,6]    primal_lower  -1.2
    y[0,6]    mccormick2[0,6]  -1
    y[0,6]    mccormick3[0,6]  -1
    y[0,7]    OBJ       80.53
    y[0,7]    flow_cons_inner_nodes[7]  1
    y[0,7]    flow_cons_source  1
    y[0,7]    primal_lower  -1.63
    y[0,7]    mccormick2[0,7]  -1
    y[0,7]    mccormick3[0,7]  -1
    y[0,8]    OBJ       63.89
    y[0,8]    flow_cons_inner_nodes[8]  1
    y[0,8]    flow_cons_source  1
    y[0,8]    primal_lower  -4.28
    y[0,8]    mccormick2[0,8]  -1
    y[0,8]    mccormick3[0,8]  -1
    y[1,2]    OBJ       80.53
    y[1,2]    flow_cons_inner_nodes[1]  -1
    y[1,2]    flow_cons_inner_nodes[2]  1
    y[1,2]    primal_lower  -3.32
    y[1,2]    mccormick2[1,2]  -1
    y[1,2]    mccormick3[1,2]  -1
    y[1,3]    OBJ       43.68
    y[1,3]    flow_cons_inner_nodes[1]  -1
    y[1,3]    flow_cons_inner_nodes[3]  1
    y[1,3]    primal_lower  -2.7
    y[1,3]    mccormick2[1,3]  -1
    y[1,3]    mccormick3[1,3]  -1
    y[1,4]    OBJ       4
    y[1,4]    flow_cons_inner_nodes[1]  -1
    y[1,4]    flow_cons_target  1
    y[1,4]    primal_lower  -0.14
    y[1,4]    mccormick2[1,4]  -1
    y[1,4]    mccormick3[1,4]  -1
    y[1,6]    OBJ       36.4
    y[1,6]    flow_cons_inner_nodes[1]  -1
    y[1,6]    flow_cons_inner_nodes[6]  1
    y[1,6]    primal_lower  -3.66
    y[1,6]    mccormick2[1,6]  -1
    y[1,6]    mccormick3[1,6]  -1
    y[1,8]    OBJ       48.37
    y[1,8]    flow_cons_inner_nodes[1]  -1
    y[1,8]    flow_cons_inner_nodes[8]  1
    y[1,8]    primal_lower  -1.97
    y[1,8]    mccormick2[1,8]  -1
    y[1,8]    mccormick3[1,8]  -1
    y[2,0]    OBJ       26.93
    y[2,0]    flow_cons_inner_nodes[2]  -1
    y[2,0]    flow_cons_source  -1
    y[2,0]    primal_lower  -4
    y[2,0]    mccormick2[2,0]  -1
    y[2,0]    mccormick3[2,0]  -1
    y[2,1]    OBJ       80.53
    y[2,1]    flow_cons_inner_nodes[1]  1
    y[2,1]    flow_cons_inner_nodes[2]  -1
    y[2,1]    primal_lower  -1.27
    y[2,1]    mccormick2[2,1]  -1
    y[2,1]    mccormick3[2,1]  -1
    y[2,3]    OBJ       38.95
    y[2,3]    flow_cons_inner_nodes[2]  -1
    y[2,3]    flow_cons_inner_nodes[3]  1
    y[2,3]    primal_lower  -0.28
    y[2,3]    mccormick2[2,3]  -1
    y[2,3]    mccormick3[2,3]  -1
    y[2,4]    OBJ       82.49
    y[2,4]    flow_cons_inner_nodes[2]  -1
    y[2,4]    flow_cons_target  1
    y[2,4]    primal_lower  -4.32
    y[2,4]    mccormick2[2,4]  -1
    y[2,4]    mccormick3[2,4]  -1
    y[2,5]    OBJ       6.08
    y[2,5]    flow_cons_inner_nodes[2]  -1
    y[2,5]    flow_cons_inner_nodes[5]  1
    y[2,5]    primal_lower  -1.1
    y[2,5]    mccormick2[2,5]  -1
    y[2,5]    mccormick3[2,5]  -1
    y[2,6]    OBJ       58.14
    y[2,6]    flow_cons_inner_nodes[2]  -1
    y[2,6]    flow_cons_inner_nodes[6]  1
    y[2,6]    primal_lower  -2.02
    y[2,6]    mccormick2[2,6]  -1
    y[2,6]    mccormick3[2,6]  -1
    y[2,7]    OBJ       82.04
    y[2,7]    flow_cons_inner_nodes[2]  -1
    y[2,7]    flow_cons_inner_nodes[7]  1
    y[2,7]    primal_lower  -1.58
    y[2,7]    mccormick2[2,7]  -1
    y[2,7]    mccormick3[2,7]  -1
    y[2,8]    OBJ       47.17
    y[2,8]    flow_cons_inner_nodes[2]  -1
    y[2,8]    flow_cons_inner_nodes[8]  1
    y[2,8]    primal_lower  -0.38
    y[2,8]    mccormick2[2,8]  -1
    y[2,8]    mccormick3[2,8]  -1
    y[3,0]    OBJ       65.19
    y[3,0]    flow_cons_inner_nodes[3]  -1
    y[3,0]    flow_cons_source  -1
    y[3,0]    primal_lower  -4.2
    y[3,0]    mccormick2[3,0]  -1
    y[3,0]    mccormick3[3,0]  -1
    y[3,1]    OBJ       43.68
    y[3,1]    flow_cons_inner_nodes[1]  1
    y[3,1]    flow_cons_inner_nodes[3]  -1
    y[3,1]    primal_lower  -4.23
    y[3,1]    mccormick2[3,1]  -1
    y[3,1]    mccormick3[3,1]  -1
    y[3,2]    OBJ       38.95
    y[3,2]    flow_cons_inner_nodes[2]  1
    y[3,2]    flow_cons_inner_nodes[3]  -1
    y[3,2]    primal_lower  -4.84
    y[3,2]    mccormick2[3,2]  -1
    y[3,2]    mccormick3[3,2]  -1
    y[3,4]    OBJ       44.94
    y[3,4]    flow_cons_inner_nodes[3]  -1
    y[3,4]    flow_cons_target  1
    y[3,4]    primal_lower  -1.92
    y[3,4]    mccormick2[3,4]  -1
    y[3,4]    mccormick3[3,4]  -1
    y[3,5]    OBJ       44.2
    y[3,5]    flow_cons_inner_nodes[3]  -1
    y[3,5]    flow_cons_inner_nodes[5]  1
    y[3,5]    primal_lower  -4.76
    y[3,5]    mccormick2[3,5]  -1
    y[3,5]    mccormick3[3,5]  -1
    y[3,6]    OBJ       36.4
    y[3,6]    flow_cons_inner_nodes[3]  -1
    y[3,6]    flow_cons_inner_nodes[6]  1
    y[3,6]    primal_lower  -2.22
    y[3,6]    mccormick2[3,6]  -1
    y[3,6]    mccormick3[3,6]  -1
    y[3,8]    OBJ       34.99
    y[3,8]    flow_cons_inner_nodes[3]  -1
    y[3,8]    flow_cons_inner_nodes[8]  1
    y[3,8]    primal_lower  -3.34
    y[3,8]    mccormick2[3,8]  -1
    y[3,8]    mccormick3[3,8]  -1
    y[4,1]    OBJ       4
    y[4,1]    flow_cons_inner_nodes[1]  1
    y[4,1]    flow_cons_target  -1
    y[4,1]    primal_lower  -0.41
    y[4,1]    mccormick2[4,1]  -1
    y[4,1]    mccormick3[4,1]  -1
    y[4,2]    OBJ       82.49
    y[4,2]    flow_cons_inner_nodes[2]  1
    y[4,2]    flow_cons_target  -1
    y[4,2]    primal_lower  -4.47
    y[4,2]    mccormick2[4,2]  -1
    y[4,2]    mccormick3[4,2]  -1
    y[4,3]    OBJ       44.94
    y[4,3]    flow_cons_inner_nodes[3]  1
    y[4,3]    flow_cons_target  -1
    y[4,3]    primal_lower  -1.48
    y[4,3]    mccormick2[4,3]  -1
    y[4,3]    mccormick3[4,3]  -1
    y[4,6]    OBJ       40.16
    y[4,6]    flow_cons_inner_nodes[6]  1
    y[4,6]    flow_cons_target  -1
    y[4,6]    primal_lower  -1.31
    y[4,6]    mccormick2[4,6]  -1
    y[4,6]    mccormick3[4,6]  -1
    y[4,8]    OBJ       51.88
    y[4,8]    flow_cons_inner_nodes[8]  1
    y[4,8]    flow_cons_target  -1
    y[4,8]    primal_lower  -0.03
    y[4,8]    mccormick2[4,8]  -1
    y[4,8]    mccormick3[4,8]  -1
    y[5,0]    OBJ       23.41
    y[5,0]    flow_cons_inner_nodes[5]  -1
    y[5,0]    flow_cons_source  -1
    y[5,0]    primal_lower  -2.71
    y[5,0]    mccormick2[5,0]  -1
    y[5,0]    mccormick3[5,0]  -1
    y[5,2]    OBJ       6.08
    y[5,2]    flow_cons_inner_nodes[2]  1
    y[5,2]    flow_cons_inner_nodes[5]  -1
    y[5,2]    primal_lower  -2.37
    y[5,2]    mccormick2[5,2]  -1
    y[5,2]    mccormick3[5,2]  -1
    y[5,3]    OBJ       44.2
    y[5,3]    flow_cons_inner_nodes[3]  1
    y[5,3]    flow_cons_inner_nodes[5]  -1
    y[5,3]    primal_lower  -3.17
    y[5,3]    mccormick2[5,3]  -1
    y[5,3]    mccormick3[5,3]  -1
    y[5,6]    OBJ       64.2
    y[5,6]    flow_cons_inner_nodes[5]  -1
    y[5,6]    flow_cons_inner_nodes[6]  1
    y[5,6]    primal_lower  -4.87
    y[5,6]    mccormick2[5,6]  -1
    y[5,6]    mccormick3[5,6]  -1
    y[5,7]    OBJ       85.8
    y[5,7]    flow_cons_inner_nodes[5]  -1
    y[5,7]    flow_cons_inner_nodes[7]  1
    y[5,7]    primal_lower  -4.53
    y[5,7]    mccormick2[5,7]  -1
    y[5,7]    mccormick3[5,7]  -1
    y[5,8]    OBJ       53.08
    y[5,8]    flow_cons_inner_nodes[5]  -1
    y[5,8]    flow_cons_inner_nodes[8]  1
    y[5,8]    primal_lower  -4.54
    y[5,8]    mccormick2[5,8]  -1
    y[5,8]    mccormick3[5,8]  -1
    y[6,0]    OBJ       76.9
    y[6,0]    flow_cons_inner_nodes[6]  -1
    y[6,0]    flow_cons_source  -1
    y[6,0]    primal_lower  -2.62
    y[6,0]    mccormick2[6,0]  -1
    y[6,0]    mccormick3[6,0]  -1
    y[6,1]    OBJ       36.4
    y[6,1]    flow_cons_inner_nodes[1]  1
    y[6,1]    flow_cons_inner_nodes[6]  -1
    y[6,1]    primal_lower  -0.52
    y[6,1]    mccormick2[6,1]  -1
    y[6,1]    mccormick3[6,1]  -1
    y[6,2]    OBJ       58.14
    y[6,2]    flow_cons_inner_nodes[2]  1
    y[6,2]    flow_cons_inner_nodes[6]  -1
    y[6,2]    primal_lower  -0.9
    y[6,2]    mccormick2[6,2]  -1
    y[6,2]    mccormick3[6,2]  -1
    y[6,3]    OBJ       36.4
    y[6,3]    flow_cons_inner_nodes[3]  1
    y[6,3]    flow_cons_inner_nodes[6]  -1
    y[6,3]    primal_lower  -4.75
    y[6,3]    mccormick2[6,3]  -1
    y[6,3]    mccormick3[6,3]  -1
    y[6,4]    OBJ       40.16
    y[6,4]    flow_cons_inner_nodes[6]  -1
    y[6,4]    flow_cons_target  1
    y[6,4]    primal_lower  -2.05
    y[6,4]    mccormick2[6,4]  -1
    y[6,4]    mccormick3[6,4]  -1
    y[6,5]    OBJ       64.2
    y[6,5]    flow_cons_inner_nodes[5]  1
    y[6,5]    flow_cons_inner_nodes[6]  -1
    y[6,5]    primal_lower  -4.31
    y[6,5]    mccormick2[6,5]  -1
    y[6,5]    mccormick3[6,5]  -1
    y[6,7]    OBJ       61.01
    y[6,7]    flow_cons_inner_nodes[6]  -1
    y[6,7]    flow_cons_inner_nodes[7]  1
    y[6,7]    primal_lower  -3.35
    y[6,7]    mccormick2[6,7]  -1
    y[6,7]    mccormick3[6,7]  -1
    y[6,8]    OBJ       13.6
    y[6,8]    flow_cons_inner_nodes[6]  -1
    y[6,8]    flow_cons_inner_nodes[8]  1
    y[6,8]    primal_lower  -3.13
    y[6,8]    mccormick2[6,8]  -1
    y[6,8]    mccormick3[6,8]  -1
    y[7,0]    OBJ       80.53
    y[7,0]    flow_cons_inner_nodes[7]  -1
    y[7,0]    flow_cons_source  -1
    y[7,0]    primal_lower  -1.37
    y[7,0]    mccormick2[7,0]  -1
    y[7,0]    mccormick3[7,0]  -1
    y[7,2]    OBJ       82.04
    y[7,2]    flow_cons_inner_nodes[2]  1
    y[7,2]    flow_cons_inner_nodes[7]  -1
    y[7,2]    primal_lower  -4.47
    y[7,2]    mccormick2[7,2]  -1
    y[7,2]    mccormick3[7,2]  -1
    y[7,5]    OBJ       85.8
    y[7,5]    flow_cons_inner_nodes[5]  1
    y[7,5]    flow_cons_inner_nodes[7]  -1
    y[7,5]    primal_lower  -1.03
    y[7,5]    mccormick2[7,5]  -1
    y[7,5]    mccormick3[7,5]  -1
    y[7,6]    OBJ       61.01
    y[7,6]    flow_cons_inner_nodes[6]  1
    y[7,6]    flow_cons_inner_nodes[7]  -1
    y[7,6]    primal_lower  -2.02
    y[7,6]    mccormick2[7,6]  -1
    y[7,6]    mccormick3[7,6]  -1
    y[7,8]    OBJ       54.34
    y[7,8]    flow_cons_inner_nodes[7]  -1
    y[7,8]    flow_cons_inner_nodes[8]  1
    y[7,8]    primal_lower  -4.95
    y[7,8]    mccormick2[7,8]  -1
    y[7,8]    mccormick3[7,8]  -1
    y[8,0]    OBJ       63.89
    y[8,0]    flow_cons_inner_nodes[8]  -1
    y[8,0]    flow_cons_source  -1
    y[8,0]    primal_lower  -3.67
    y[8,0]    mccormick2[8,0]  -1
    y[8,0]    mccormick3[8,0]  -1
    y[8,1]    OBJ       48.37
    y[8,1]    flow_cons_inner_nodes[1]  1
    y[8,1]    flow_cons_inner_nodes[8]  -1
    y[8,1]    primal_lower  -2.22
    y[8,1]    mccormick2[8,1]  -1
    y[8,1]    mccormick3[8,1]  -1
    y[8,2]    OBJ       47.17
    y[8,2]    flow_cons_inner_nodes[2]  1
    y[8,2]    flow_cons_inner_nodes[8]  -1
    y[8,2]    primal_lower  -2.79
    y[8,2]    mccormick2[8,2]  -1
    y[8,2]    mccormick3[8,2]  -1
    y[8,3]    OBJ       34.99
    y[8,3]    flow_cons_inner_nodes[3]  1
    y[8,3]    flow_cons_inner_nodes[8]  -1
    y[8,3]    primal_lower  -2.05
    y[8,3]    mccormick2[8,3]  -1
    y[8,3]    mccormick3[8,3]  -1
    y[8,4]    OBJ       51.88
    y[8,4]    flow_cons_inner_nodes[8]  -1
    y[8,4]    flow_cons_target  1
    y[8,4]    primal_lower  -3.62
    y[8,4]    mccormick2[8,4]  -1
    y[8,4]    mccormick3[8,4]  -1
    y[8,5]    OBJ       53.08
    y[8,5]    flow_cons_inner_nodes[5]  1
    y[8,5]    flow_cons_inner_nodes[8]  -1
    y[8,5]    primal_lower  -1.99
    y[8,5]    mccormick2[8,5]  -1
    y[8,5]    mccormick3[8,5]  -1
    y[8,6]    OBJ       13.6
    y[8,6]    flow_cons_inner_nodes[6]  1
    y[8,6]    flow_cons_inner_nodes[8]  -1
    y[8,6]    primal_lower  -3.34
    y[8,6]    mccormick2[8,6]  -1
    y[8,6]    mccormick3[8,6]  -1
    y[8,7]    OBJ       54.34
    y[8,7]    flow_cons_inner_nodes[7]  1
    y[8,7]    flow_cons_inner_nodes[8]  -1
    y[8,7]    primal_lower  -3.51
    y[8,7]    mccormick2[8,7]  -1
    y[8,7]    mccormick3[8,7]  -1
    u[0,2]    primal_lower  58
    u[0,2]    mccormick1[0,2]  -1
    u[0,2]    mccormick3[0,2]  -1
    u[0,3]    primal_lower  35
    u[0,3]    mccormick1[0,3]  -1
    u[0,3]    mccormick3[0,3]  -1
    u[0,5]    primal_lower  35
    u[0,5]    mccormick1[0,5]  -1
    u[0,5]    mccormick3[0,5]  -1
    u[0,6]    primal_lower  51
    u[0,6]    mccormick1[0,6]  -1
    u[0,6]    mccormick3[0,6]  -1
    u[0,7]    primal_lower  73
    u[0,7]    mccormick1[0,7]  -1
    u[0,7]    mccormick3[0,7]  -1
    u[0,8]    primal_lower  49
    u[0,8]    mccormick1[0,8]  -1
    u[0,8]    mccormick3[0,8]  -1
    u[1,2]    primal_lower  30
    u[1,2]    mccormick1[1,2]  -1
    u[1,2]    mccormick3[1,2]  -1
    u[1,3]    primal_lower  85
    u[1,3]    mccormick1[1,3]  -1
    u[1,3]    mccormick3[1,3]  -1
    u[1,4]    primal_lower  39
    u[1,4]    mccormick1[1,4]  -1
    u[1,4]    mccormick3[1,4]  -1
    u[1,6]    primal_lower  82
    u[1,6]    mccormick1[1,6]  -1
    u[1,6]    mccormick3[1,6]  -1
    u[1,8]    primal_lower  92
    u[1,8]    mccormick1[1,8]  -1
    u[1,8]    mccormick3[1,8]  -1
    u[2,0]    primal_lower  58
    u[2,0]    mccormick1[2,0]  -1
    u[2,0]    mccormick3[2,0]  -1
    u[2,1]    primal_lower  4
    u[2,1]    mccormick1[2,1]  -1
    u[2,1]    mccormick3[2,1]  -1
    u[2,3]    primal_lower  58
    u[2,3]    mccormick1[2,3]  -1
    u[2,3]    mccormick3[2,3]  -1
    u[2,4]    primal_lower  90
    u[2,4]    mccormick1[2,4]  -1
    u[2,4]    mccormick3[2,4]  -1
    u[2,5]    primal_lower  76
    u[2,5]    mccormick1[2,5]  -1
    u[2,5]    mccormick3[2,5]  -1
    u[2,6]    primal_lower  8
    u[2,6]    mccormick1[2,6]  -1
    u[2,6]    mccormick3[2,6]  -1
    u[2,7]    primal_lower  95
    u[2,7]    mccormick1[2,7]  -1
    u[2,7]    mccormick3[2,7]  -1
    u[2,8]    primal_lower  57
    u[2,8]    mccormick1[2,8]  -1
    u[2,8]    mccormick3[2,8]  -1
    u[3,0]    primal_lower  67
    u[3,0]    mccormick1[3,0]  -1
    u[3,0]    mccormick3[3,0]  -1
    u[3,1]    primal_lower  18
    u[3,1]    mccormick1[3,1]  -1
    u[3,1]    mccormick3[3,1]  -1
    u[3,2]    primal_lower  96
    u[3,2]    mccormick1[3,2]  -1
    u[3,2]    mccormick3[3,2]  -1
    u[3,4]    primal_lower  70
    u[3,4]    mccormick1[3,4]  -1
    u[3,4]    mccormick3[3,4]  -1
    u[3,5]    primal_lower  28
    u[3,5]    mccormick1[3,5]  -1
    u[3,5]    mccormick3[3,5]  -1
    u[3,6]    primal_lower  55
    u[3,6]    mccormick1[3,6]  -1
    u[3,6]    mccormick3[3,6]  -1
    u[3,8]    primal_lower  24
    u[3,8]    mccormick1[3,8]  -1
    u[3,8]    mccormick3[3,8]  -1
    u[4,1]    primal_lower  95
    u[4,1]    mccormick1[4,1]  -1
    u[4,1]    mccormick3[4,1]  -1
    u[4,2]    primal_lower  11
    u[4,2]    mccormick1[4,2]  -1
    u[4,2]    mccormick3[4,2]  -1
    u[4,3]    primal_lower  95
    u[4,3]    mccormick1[4,3]  -1
    u[4,3]    mccormick3[4,3]  -1
    u[4,6]    primal_lower  24
    u[4,6]    mccormick1[4,6]  -1
    u[4,6]    mccormick3[4,6]  -1
    u[4,8]    primal_lower  3
    u[4,8]    mccormick1[4,8]  -1
    u[4,8]    mccormick3[4,8]  -1
    u[5,0]    primal_lower  77
    u[5,0]    mccormick1[5,0]  -1
    u[5,0]    mccormick3[5,0]  -1
    u[5,2]    primal_lower  68
    u[5,2]    mccormick1[5,2]  -1
    u[5,2]    mccormick3[5,2]  -1
    u[5,3]    primal_lower  51
    u[5,3]    mccormick1[5,3]  -1
    u[5,3]    mccormick3[5,3]  -1
    u[5,6]    primal_lower  23
    u[5,6]    mccormick1[5,6]  -1
    u[5,6]    mccormick3[5,6]  -1
    u[5,7]    primal_lower  63
    u[5,7]    mccormick1[5,7]  -1
    u[5,7]    mccormick3[5,7]  -1
    u[5,8]    primal_lower  96
    u[5,8]    mccormick1[5,8]  -1
    u[5,8]    mccormick3[5,8]  -1
    u[6,0]    primal_lower  27
    u[6,0]    mccormick1[6,0]  -1
    u[6,0]    mccormick3[6,0]  -1
    u[6,1]    primal_lower  29
    u[6,1]    mccormick1[6,1]  -1
    u[6,1]    mccormick3[6,1]  -1
    u[6,2]    primal_lower  62
    u[6,2]    mccormick1[6,2]  -1
    u[6,2]    mccormick3[6,2]  -1
    u[6,3]    primal_lower  100
    u[6,3]    mccormick1[6,3]  -1
    u[6,3]    mccormick3[6,3]  -1
    u[6,4]    primal_lower  6
    u[6,4]    mccormick1[6,4]  -1
    u[6,4]    mccormick3[6,4]  -1
    u[6,5]    primal_lower  42
    u[6,5]    mccormick1[6,5]  -1
    u[6,5]    mccormick3[6,5]  -1
    u[6,7]    primal_lower  88
    u[6,7]    mccormick1[6,7]  -1
    u[6,7]    mccormick3[6,7]  -1
    u[6,8]    primal_lower  27
    u[6,8]    mccormick1[6,8]  -1
    u[6,8]    mccormick3[6,8]  -1
    u[7,0]    primal_lower  25
    u[7,0]    mccormick1[7,0]  -1
    u[7,0]    mccormick3[7,0]  -1
    u[7,2]    primal_lower  21
    u[7,2]    mccormick1[7,2]  -1
    u[7,2]    mccormick3[7,2]  -1
    u[7,5]    primal_lower  85
    u[7,5]    mccormick1[7,5]  -1
    u[7,5]    mccormick3[7,5]  -1
    u[7,6]    primal_lower  83
    u[7,6]    mccormick1[7,6]  -1
    u[7,6]    mccormick3[7,6]  -1
    u[7,8]    primal_lower  58
    u[7,8]    mccormick1[7,8]  -1
    u[7,8]    mccormick3[7,8]  -1
    u[8,0]    primal_lower  19
    u[8,0]    mccormick1[8,0]  -1
    u[8,0]    mccormick3[8,0]  -1
    u[8,1]    primal_lower  71
    u[8,1]    mccormick1[8,1]  -1
    u[8,1]    mccormick3[8,1]  -1
    u[8,2]    primal_lower  33
    u[8,2]    mccormick1[8,2]  -1
    u[8,2]    mccormick3[8,2]  -1
    u[8,3]    primal_lower  69
    u[8,3]    mccormick1[8,3]  -1
    u[8,3]    mccormick3[8,3]  -1
    u[8,4]    primal_lower  78
    u[8,4]    mccormick1[8,4]  -1
    u[8,4]    mccormick3[8,4]  -1
    u[8,5]    primal_lower  80
    u[8,5]    mccormick1[8,5]  -1
    u[8,5]    mccormick3[8,5]  -1
    u[8,6]    primal_lower  68
    u[8,6]    mccormick1[8,6]  -1
    u[8,6]    mccormick3[8,6]  -1
    u[8,7]    primal_lower  71
    u[8,7]    mccormick1[8,7]  -1
    u[8,7]    mccormick3[8,7]  -1
    r[0,2]    OBJ       2.693
    r[0,2]    mccormick1[0,2]  1
    r[0,2]    mccormick2[0,2]  1
    r[0,2]    mccormick3[0,2]  1
    r[0,3]    OBJ       6.519
    r[0,3]    mccormick1[0,3]  1
    r[0,3]    mccormick2[0,3]  1
    r[0,3]    mccormick3[0,3]  1
    r[0,5]    OBJ       2.341
    r[0,5]    mccormick1[0,5]  1
    r[0,5]    mccormick2[0,5]  1
    r[0,5]    mccormick3[0,5]  1
    r[0,6]    OBJ       7.6900000000000013e+00
    r[0,6]    mccormick1[0,6]  1
    r[0,6]    mccormick2[0,6]  1
    r[0,6]    mccormick3[0,6]  1
    r[0,7]    OBJ       8.053
    r[0,7]    mccormick1[0,7]  1
    r[0,7]    mccormick2[0,7]  1
    r[0,7]    mccormick3[0,7]  1
    r[0,8]    OBJ       6.389
    r[0,8]    mccormick1[0,8]  1
    r[0,8]    mccormick2[0,8]  1
    r[0,8]    mccormick3[0,8]  1
    r[1,2]    OBJ       8.053
    r[1,2]    mccormick1[1,2]  1
    r[1,2]    mccormick2[1,2]  1
    r[1,2]    mccormick3[1,2]  1
    r[1,3]    OBJ       4.368
    r[1,3]    mccormick1[1,3]  1
    r[1,3]    mccormick2[1,3]  1
    r[1,3]    mccormick3[1,3]  1
    r[1,4]    OBJ       0.4
    r[1,4]    mccormick1[1,4]  1
    r[1,4]    mccormick2[1,4]  1
    r[1,4]    mccormick3[1,4]  1
    r[1,6]    OBJ       3.64
    r[1,6]    mccormick1[1,6]  1
    r[1,6]    mccormick2[1,6]  1
    r[1,6]    mccormick3[1,6]  1
    r[1,8]    OBJ       4.837
    r[1,8]    mccormick1[1,8]  1
    r[1,8]    mccormick2[1,8]  1
    r[1,8]    mccormick3[1,8]  1
    r[2,0]    OBJ       2.693
    r[2,0]    mccormick1[2,0]  1
    r[2,0]    mccormick2[2,0]  1
    r[2,0]    mccormick3[2,0]  1
    r[2,1]    OBJ       8.053
    r[2,1]    mccormick1[2,1]  1
    r[2,1]    mccormick2[2,1]  1
    r[2,1]    mccormick3[2,1]  1
    r[2,3]    OBJ       3.8950000000000005e+00
    r[2,3]    mccormick1[2,3]  1
    r[2,3]    mccormick2[2,3]  1
    r[2,3]    mccormick3[2,3]  1
    r[2,4]    OBJ       8.249
    r[2,4]    mccormick1[2,4]  1
    r[2,4]    mccormick2[2,4]  1
    r[2,4]    mccormick3[2,4]  1
    r[2,5]    OBJ       6.0800000000000010e-01
    r[2,5]    mccormick1[2,5]  1
    r[2,5]    mccormick2[2,5]  1
    r[2,5]    mccormick3[2,5]  1
    r[2,6]    OBJ       5.814
    r[2,6]    mccormick1[2,6]  1
    r[2,6]    mccormick2[2,6]  1
    r[2,6]    mccormick3[2,6]  1
    r[2,7]    OBJ       8.204
    r[2,7]    mccormick1[2,7]  1
    r[2,7]    mccormick2[2,7]  1
    r[2,7]    mccormick3[2,7]  1
    r[2,8]    OBJ       4.7170000000000005e+00
    r[2,8]    mccormick1[2,8]  1
    r[2,8]    mccormick2[2,8]  1
    r[2,8]    mccormick3[2,8]  1
    r[3,0]    OBJ       6.519
    r[3,0]    mccormick1[3,0]  1
    r[3,0]    mccormick2[3,0]  1
    r[3,0]    mccormick3[3,0]  1
    r[3,1]    OBJ       4.368
    r[3,1]    mccormick1[3,1]  1
    r[3,1]    mccormick2[3,1]  1
    r[3,1]    mccormick3[3,1]  1
    r[3,2]    OBJ       3.8950000000000005e+00
    r[3,2]    mccormick1[3,2]  1
    r[3,2]    mccormick2[3,2]  1
    r[3,2]    mccormick3[3,2]  1
    r[3,4]    OBJ       4.494
    r[3,4]    mccormick1[3,4]  1
    r[3,4]    mccormick2[3,4]  1
    r[3,4]    mccormick3[3,4]  1
    r[3,5]    OBJ       4.4200000000000008e+00
    r[3,5]    mccormick1[3,5]  1
    r[3,5]    mccormick2[3,5]  1
    r[3,5]    mccormick3[3,5]  1
    r[3,6]    OBJ       3.64
    r[3,6]    mccormick1[3,6]  1
    r[3,6]    mccormick2[3,6]  1
    r[3,6]    mccormick3[3,6]  1
    r[3,8]    OBJ       3.4990000000000006e+00
    r[3,8]    mccormick1[3,8]  1
    r[3,8]    mccormick2[3,8]  1
    r[3,8]    mccormick3[3,8]  1
    r[4,1]    OBJ       0.4
    r[4,1]    mccormick1[4,1]  1
    r[4,1]    mccormick2[4,1]  1
    r[4,1]    mccormick3[4,1]  1
    r[4,2]    OBJ       8.249
    r[4,2]    mccormick1[4,2]  1
    r[4,2]    mccormick2[4,2]  1
    r[4,2]    mccormick3[4,2]  1
    r[4,3]    OBJ       4.494
    r[4,3]    mccormick1[4,3]  1
    r[4,3]    mccormick2[4,3]  1
    r[4,3]    mccormick3[4,3]  1
    r[4,6]    OBJ       4.016
    r[4,6]    mccormick1[4,6]  1
    r[4,6]    mccormick2[4,6]  1
    r[4,6]    mccormick3[4,6]  1
    r[4,8]    OBJ       5.1880000000000006e+00
    r[4,8]    mccormick1[4,8]  1
    r[4,8]    mccormick2[4,8]  1
    r[4,8]    mccormick3[4,8]  1
    r[5,0]    OBJ       2.341
    r[5,0]    mccormick1[5,0]  1
    r[5,0]    mccormick2[5,0]  1
    r[5,0]    mccormick3[5,0]  1
    r[5,2]    OBJ       6.0800000000000010e-01
    r[5,2]    mccormick1[5,2]  1
    r[5,2]    mccormick2[5,2]  1
    r[5,2]    mccormick3[5,2]  1
    r[5,3]    OBJ       4.4200000000000008e+00
    r[5,3]    mccormick1[5,3]  1
    r[5,3]    mccormick2[5,3]  1
    r[5,3]    mccormick3[5,3]  1
    r[5,6]    OBJ       6.4200000000000008e+00
    r[5,6]    mccormick1[5,6]  1
    r[5,6]    mccormick2[5,6]  1
    r[5,6]    mccormick3[5,6]  1
    r[5,7]    OBJ       8.58
    r[5,7]    mccormick1[5,7]  1
    r[5,7]    mccormick2[5,7]  1
    r[5,7]    mccormick3[5,7]  1
    r[5,8]    OBJ       5.308
    r[5,8]    mccormick1[5,8]  1
    r[5,8]    mccormick2[5,8]  1
    r[5,8]    mccormick3[5,8]  1
    r[6,0]    OBJ       7.6900000000000013e+00
    r[6,0]    mccormick1[6,0]  1
    r[6,0]    mccormick2[6,0]  1
    r[6,0]    mccormick3[6,0]  1
    r[6,1]    OBJ       3.64
    r[6,1]    mccormick1[6,1]  1
    r[6,1]    mccormick2[6,1]  1
    r[6,1]    mccormick3[6,1]  1
    r[6,2]    OBJ       5.814
    r[6,2]    mccormick1[6,2]  1
    r[6,2]    mccormick2[6,2]  1
    r[6,2]    mccormick3[6,2]  1
    r[6,3]    OBJ       3.64
    r[6,3]    mccormick1[6,3]  1
    r[6,3]    mccormick2[6,3]  1
    r[6,3]    mccormick3[6,3]  1
    r[6,4]    OBJ       4.016
    r[6,4]    mccormick1[6,4]  1
    r[6,4]    mccormick2[6,4]  1
    r[6,4]    mccormick3[6,4]  1
    r[6,5]    OBJ       6.4200000000000008e+00
    r[6,5]    mccormick1[6,5]  1
    r[6,5]    mccormick2[6,5]  1
    r[6,5]    mccormick3[6,5]  1
    r[6,7]    OBJ       6.101
    r[6,7]    mccormick1[6,7]  1
    r[6,7]    mccormick2[6,7]  1
    r[6,7]    mccormick3[6,7]  1
    r[6,8]    OBJ       1.36
    r[6,8]    mccormick1[6,8]  1
    r[6,8]    mccormick2[6,8]  1
    r[6,8]    mccormick3[6,8]  1
    r[7,0]    OBJ       8.053
    r[7,0]    mccormick1[7,0]  1
    r[7,0]    mccormick2[7,0]  1
    r[7,0]    mccormick3[7,0]  1
    r[7,2]    OBJ       8.204
    r[7,2]    mccormick1[7,2]  1
    r[7,2]    mccormick2[7,2]  1
    r[7,2]    mccormick3[7,2]  1
    r[7,5]    OBJ       8.58
    r[7,5]    mccormick1[7,5]  1
    r[7,5]    mccormick2[7,5]  1
    r[7,5]    mccormick3[7,5]  1
    r[7,6]    OBJ       6.101
    r[7,6]    mccormick1[7,6]  1
    r[7,6]    mccormick2[7,6]  1
    r[7,6]    mccormick3[7,6]  1
    r[7,8]    OBJ       5.4340000000000011e+00
    r[7,8]    mccormick1[7,8]  1
    r[7,8]    mccormick2[7,8]  1
    r[7,8]    mccormick3[7,8]  1
    r[8,0]    OBJ       6.389
    r[8,0]    mccormick1[8,0]  1
    r[8,0]    mccormick2[8,0]  1
    r[8,0]    mccormick3[8,0]  1
    r[8,1]    OBJ       4.837
    r[8,1]    mccormick1[8,1]  1
    r[8,1]    mccormick2[8,1]  1
    r[8,1]    mccormick3[8,1]  1
    r[8,2]    OBJ       4.7170000000000005e+00
    r[8,2]    mccormick1[8,2]  1
    r[8,2]    mccormick2[8,2]  1
    r[8,2]    mccormick3[8,2]  1
    r[8,3]    OBJ       3.4990000000000006e+00
    r[8,3]    mccormick1[8,3]  1
    r[8,3]    mccormick2[8,3]  1
    r[8,3]    mccormick3[8,3]  1
    r[8,4]    OBJ       5.1880000000000006e+00
    r[8,4]    mccormick1[8,4]  1
    r[8,4]    mccormick2[8,4]  1
    r[8,4]    mccormick3[8,4]  1
    r[8,5]    OBJ       5.308
    r[8,5]    mccormick1[8,5]  1
    r[8,5]    mccormick2[8,5]  1
    r[8,5]    mccormick3[8,5]  1
    r[8,6]    OBJ       1.36
    r[8,6]    mccormick1[8,6]  1
    r[8,6]    mccormick2[8,6]  1
    r[8,6]    mccormick3[8,6]  1
    r[8,7]    OBJ       5.4340000000000011e+00
    r[8,7]    mccormick1[8,7]  1
    r[8,7]    mccormick2[8,7]  1
    r[8,7]    mccormick3[8,7]  1
    MARKER    'MARKER'                 'INTEND'
RHS
    RHS1      flow_cons_source  1
    RHS1      flow_cons_target  1
    RHS1      primal_lower  289
    RHS1      mccormick3[0,2]  -1
    RHS1      mccormick3[0,3]  -1
    RHS1      mccormick3[0,5]  -1
    RHS1      mccormick3[0,6]  -1
    RHS1      mccormick3[0,7]  -1
    RHS1      mccormick3[0,8]  -1
    RHS1      mccormick3[1,2]  -1
    RHS1      mccormick3[1,3]  -1
    RHS1      mccormick3[1,4]  -1
    RHS1      mccormick3[1,6]  -1
    RHS1      mccormick3[1,8]  -1
    RHS1      mccormick3[2,0]  -1
    RHS1      mccormick3[2,1]  -1
    RHS1      mccormick3[2,3]  -1
    RHS1      mccormick3[2,4]  -1
    RHS1      mccormick3[2,5]  -1
    RHS1      mccormick3[2,6]  -1
    RHS1      mccormick3[2,7]  -1
    RHS1      mccormick3[2,8]  -1
    RHS1      mccormick3[3,0]  -1
    RHS1      mccormick3[3,1]  -1
    RHS1      mccormick3[3,2]  -1
    RHS1      mccormick3[3,4]  -1
    RHS1      mccormick3[3,5]  -1
    RHS1      mccormick3[3,6]  -1
    RHS1      mccormick3[3,8]  -1
    RHS1      mccormick3[4,1]  -1
    RHS1      mccormick3[4,2]  -1
    RHS1      mccormick3[4,3]  -1
    RHS1      mccormick3[4,6]  -1
    RHS1      mccormick3[4,8]  -1
    RHS1      mccormick3[5,0]  -1
    RHS1      mccormick3[5,2]  -1
    RHS1      mccormick3[5,3]  -1
    RHS1      mccormick3[5,6]  -1
    RHS1      mccormick3[5,7]  -1
    RHS1      mccormick3[5,8]  -1
    RHS1      mccormick3[6,0]  -1
    RHS1      mccormick3[6,1]  -1
    RHS1      mccormick3[6,2]  -1
    RHS1      mccormick3[6,3]  -1
    RHS1      mccormick3[6,4]  -1
    RHS1      mccormick3[6,5]  -1
    RHS1      mccormick3[6,7]  -1
    RHS1      mccormick3[6,8]  -1
    RHS1      mccormick3[7,0]  -1
    RHS1      mccormick3[7,2]  -1
    RHS1      mccormick3[7,5]  -1
    RHS1      mccormick3[7,6]  -1
    RHS1      mccormick3[7,8]  -1
    RHS1      mccormick3[8,0]  -1
    RHS1      mccormick3[8,1]  -1
    RHS1      mccormick3[8,2]  -1
    RHS1      mccormick3[8,3]  -1
    RHS1      mccormick3[8,4]  -1
    RHS1      mccormick3[8,5]  -1
    RHS1      mccormick3[8,6]  -1
    RHS1      mccormick3[8,7]  -1
BOUNDS
 BV BND1      y[0,2]  
 BV BND1      y[0,3]  
 BV BND1      y[0,5]  
 BV BND1      y[0,6]  
 BV BND1      y[0,7]  
 BV BND1      y[0,8]  
 BV BND1      y[1,2]  
 BV BND1      y[1,3]  
 BV BND1      y[1,4]  
 BV BND1      y[1,6]  
 BV BND1      y[1,8]  
 BV BND1      y[2,0]  
 BV BND1      y[2,1]  
 BV BND1      y[2,3]  
 BV BND1      y[2,4]  
 BV BND1      y[2,5]  
 BV BND1      y[2,6]  
 BV BND1      y[2,7]  
 BV BND1      y[2,8]  
 BV BND1      y[3,0]  
 BV BND1      y[3,1]  
 BV BND1      y[3,2]  
 BV BND1      y[3,4]  
 BV BND1      y[3,5]  
 BV BND1      y[3,6]  
 BV BND1      y[3,8]  
 BV BND1      y[4,1]  
 BV BND1      y[4,2]  
 BV BND1      y[4,3]  
 BV BND1      y[4,6]  
 BV BND1      y[4,8]  
 BV BND1      y[5,0]  
 BV BND1      y[5,2]  
 BV BND1      y[5,3]  
 BV BND1      y[5,6]  
 BV BND1      y[5,7]  
 BV BND1      y[5,8]  
 BV BND1      y[6,0]  
 BV BND1      y[6,1]  
 BV BND1      y[6,2]  
 BV BND1      y[6,3]  
 BV BND1      y[6,4]  
 BV BND1      y[6,5]  
 BV BND1      y[6,7]  
 BV BND1      y[6,8]  
 BV BND1      y[7,0]  
 BV BND1      y[7,2]  
 BV BND1      y[7,5]  
 BV BND1      y[7,6]  
 BV BND1      y[7,8]  
 BV BND1      y[8,0]  
 BV BND1      y[8,1]  
 BV BND1      y[8,2]  
 BV BND1      y[8,3]  
 BV BND1      y[8,4]  
 BV BND1      y[8,5]  
 BV BND1      y[8,6]  
 BV BND1      y[8,7]  
 BV BND1      u[0,2]  
 BV BND1      u[0,3]  
 BV BND1      u[0,5]  
 BV BND1      u[0,6]  
 BV BND1      u[0,7]  
 BV BND1      u[0,8]  
 BV BND1      u[1,2]  
 BV BND1      u[1,3]  
 BV BND1      u[1,4]  
 BV BND1      u[1,6]  
 BV BND1      u[1,8]  
 BV BND1      u[2,0]  
 BV BND1      u[2,1]  
 BV BND1      u[2,3]  
 BV BND1      u[2,4]  
 BV BND1      u[2,5]  
 BV BND1      u[2,6]  
 BV BND1      u[2,7]  
 BV BND1      u[2,8]  
 BV BND1      u[3,0]  
 BV BND1      u[3,1]  
 BV BND1      u[3,2]  
 BV BND1      u[3,4]  
 BV BND1      u[3,5]  
 BV BND1      u[3,6]  
 BV BND1      u[3,8]  
 BV BND1      u[4,1]  
 BV BND1      u[4,2]  
 BV BND1      u[4,3]  
 BV BND1      u[4,6]  
 BV BND1      u[4,8]  
 BV BND1      u[5,0]  
 BV BND1      u[5,2]  
 BV BND1      u[5,3]  
 BV BND1      u[5,6]  
 BV BND1      u[5,7]  
 BV BND1      u[5,8]  
 BV BND1      u[6,0]  
 BV BND1      u[6,1]  
 BV BND1      u[6,2]  
 BV BND1      u[6,3]  
 BV BND1      u[6,4]  
 BV BND1      u[6,5]  
 BV BND1      u[6,7]  
 BV BND1      u[6,8]  
 BV BND1      u[7,0]  
 BV BND1      u[7,2]  
 BV BND1      u[7,5]  
 BV BND1      u[7,6]  
 BV BND1      u[7,8]  
 BV BND1      u[8,0]  
 BV BND1      u[8,1]  
 BV BND1      u[8,2]  
 BV BND1      u[8,3]  
 BV BND1      u[8,4]  
 BV BND1      u[8,5]  
 BV BND1      u[8,6]  
 BV BND1      u[8,7]  
 BV BND1      r[0,2]  
 BV BND1      r[0,3]  
 BV BND1      r[0,5]  
 BV BND1      r[0,6]  
 BV BND1      r[0,7]  
 BV BND1      r[0,8]  
 BV BND1      r[1,2]  
 BV BND1      r[1,3]  
 BV BND1      r[1,4]  
 BV BND1      r[1,6]  
 BV BND1      r[1,8]  
 BV BND1      r[2,0]  
 BV BND1      r[2,1]  
 BV BND1      r[2,3]  
 BV BND1      r[2,4]  
 BV BND1      r[2,5]  
 BV BND1      r[2,6]  
 BV BND1      r[2,7]  
 BV BND1      r[2,8]  
 BV BND1      r[3,0]  
 BV BND1      r[3,1]  
 BV BND1      r[3,2]  
 BV BND1      r[3,4]  
 BV BND1      r[3,5]  
 BV BND1      r[3,6]  
 BV BND1      r[3,8]  
 BV BND1      r[4,1]  
 BV BND1      r[4,2]  
 BV BND1      r[4,3]  
 BV BND1      r[4,6]  
 BV BND1      r[4,8]  
 BV BND1      r[5,0]  
 BV BND1      r[5,2]  
 BV BND1      r[5,3]  
 BV BND1      r[5,6]  
 BV BND1      r[5,7]  
 BV BND1      r[5,8]  
 BV BND1      r[6,0]  
 BV BND1      r[6,1]  
 BV BND1      r[6,2]  
 BV BND1      r[6,3]  
 BV BND1      r[6,4]  
 BV BND1      r[6,5]  
 BV BND1      r[6,7]  
 BV BND1      r[6,8]  
 BV BND1      r[7,0]  
 BV BND1      r[7,2]  
 BV BND1      r[7,5]  
 BV BND1      r[7,6]  
 BV BND1      r[7,8]  
 BV BND1      r[8,0]  
 BV BND1      r[8,1]  
 BV BND1      r[8,2]  
 BV BND1      r[8,3]  
 BV BND1      r[8,4]  
 BV BND1      r[8,5]  
 BV BND1      r[8,6]  
 BV BND1      r[8,7]  
ENDATA
